certificates/rado_a12_c20_N49.drat
2 5 0
d 2 1 5 0
-45 -49 0
-49 0
-2 -5 0
d -2 -1 -5 0
-5 0
45 0
9 0
2 0
-41 0
-1 0
-13 0
-6 0
0
